
===== New CPLEX run =====
Instance: /home/yorig/tuner/mpils-tests/instances/miplib/easy/mas74.mps
Config: /scratch/yorig/mpils-results-grid-ticks-10000-divide/easy/16proc/seed-4/5_mas74_seed-4_20260429_043455/expansion/config_param_CPXPARAM_MIP_Limits_AggForCut_10_iter_3.prm
========================

Selected objective sense:  MINIMIZE
Selected objective  name:  obj
Selected RHS        name:  rhs
Selected bound      name:  bnd
Version identifier: 22.1.2.0 | 2024-11-26 | 0edbb82fd
CPXPARAM_Threads                                 8
CPXPARAM_Parallel                                1
CPXPARAM_MIP_Cuts_Cliques                        1
CPXPARAM_MIP_Cuts_Covers                         -1
CPXPARAM_MIP_Strategy_PresolveNode               -1
CPXPARAM_MIP_Cuts_FlowCovers                     -1
CPXPARAM_MIP_Cuts_Implied                        -1
CPXPARAM_MIP_Cuts_GUBCovers                      -1
CPXPARAM_MIP_Limits_GomoryCand                   10
CPXPARAM_MIP_Cuts_Gomory                         2
CPXPARAM_MIP_Cuts_PathCut                        2
CPXPARAM_MIP_Cuts_MIRCut                         -1
CPXPARAM_MIP_Cuts_Disjunctive                    2
CPXPARAM_MIP_Limits_AggForCut                    10
CPXPARAM_Emphasis_MIP                            3
CPXPARAM_MIP_Strategy_RINSHeur                   20
CPXPARAM_DetTimeLimit                            10000
CPXPARAM_MIP_Limits_CutsFactor                   1
Found incumbent of value 157344.610330 after 0.00 sec. (0.02 ticks)
Tried aggregator 1 time.
MIP Presolve eliminated 0 rows and 3 columns.
Reduced MIP has 13 rows, 148 columns, and 1682 nonzeros.
Reduced MIP has 145 binaries, 2 generals, 0 SOSs, and 0 indicators.
Presolve time = 0.00 sec. (0.84 ticks)
Probing time = 0.00 sec. (0.09 ticks)
Tried aggregator 1 time.
Detecting symmetries...
Reduced MIP has 13 rows, 148 columns, and 1682 nonzeros.
Reduced MIP has 145 binaries, 2 generals, 0 SOSs, and 0 indicators.
Presolve time = 0.00 sec. (0.79 ticks)
Probing time = 0.00 sec. (0.09 ticks)
MIP emphasis: best bound.
MIP search method: dynamic search.
Parallel mode: deterministic, using up to 8 threads.
Root relaxation solution time = 0.02 sec. (0.72 ticks)

        Nodes                                         Cuts/
   Node  Left     Objective  IInf  Best Integer    Best Bound    ItCnt     Gap

*     0+    0                       157344.6103        0.0000           100.00%
*     0+    0                        51840.4943        0.0000           100.00%
      0     0    10482.7953    12    51840.4943    10482.7953       43   79.78%
*     0+    0                        19197.4680    10482.7953            45.39%
*     0+    0                        15240.3317    10482.7953            31.22%
*     0+    0                        14372.8713    10482.7953            27.07%
*     0+    0                        13174.3215    10513.0180            20.20%
Detecting symmetries...
      0     2    10482.7953    12    13174.3215    10534.0211       43   20.04%
Elapsed time = 0.45 sec. (11.03 ticks, tree = 0.02 MB, solutions = 6)
*    10+    7                        12915.1000    10534.0211            18.44%
*    40+   31                        12759.1000    10534.0211            17.44%
*   116+   31                        12647.4680    10534.0211            16.71%
*   220+   92                        12566.6944    10542.8535            16.10%
*   220+  122                        12356.3713    10542.8535            14.68%
*   360+  155                        12343.4387    10615.2519            14.00%
*   400+  155                        12291.0216    10615.2519            13.63%
*   681+  407                        12081.6961    10657.2875            11.79%

Performing restart 1

Repeating presolve.
Tried aggregator 1 time.
MIP Presolve eliminated 0 rows and 44 columns.
Reduced MIP has 13 rows, 104 columns, and 1119 nonzeros.
Reduced MIP has 102 binaries, 1 generals, 0 SOSs, and 0 indicators.
Presolve time = 0.00 sec. (0.40 ticks)
Tried aggregator 1 time.
Reduced MIP has 13 rows, 104 columns, and 1119 nonzeros.
Reduced MIP has 102 binaries, 1 generals, 0 SOSs, and 0 indicators.
Presolve time = 0.00 sec. (0.50 ticks)
Represolve time = 0.00 sec. (1.30 ticks)
   2365    92    10698.7019    12    12081.6961    10735.0022    12901   11.15%
*  2735+  407                        12007.4486    10735.0022            10.60%
   4213  1514    10961.8796    12    12007.4486    10822.8017    22484    9.87%
* 25691+21437                        11891.2631    11057.7537             7.01%
  27391 22821    11096.0763    12    11891.2631    11063.0646   166981    6.96%
  44318 39047    11501.2984    11    11891.2631    11113.4034   278076    6.54%
  58144 51708    11297.6311    12    11891.2631    11113.4034   365851    6.54%
  72204 64205    11241.8630    12    11891.2631    11113.4034   453593    6.54%
  86552 77339    11585.9025    12    11891.2631    11113.4034   545391    6.54%
* 89791+79554                        11857.3713    11113.4034             6.27%

Performing restart 2

Repeating presolve.
Tried aggregator 1 time.
MIP Presolve eliminated 0 rows and 4 columns.
Reduced MIP has 13 rows, 100 columns, and 1067 nonzeros.
Reduced MIP has 98 binaries, 1 generals, 0 SOSs, and 0 indicators.
Presolve time = 0.00 sec. (0.35 ticks)
Tried aggregator 1 time.
Reduced MIP has 13 rows, 100 columns, and 1067 nonzeros.
Reduced MIP has 98 binaries, 1 generals, 0 SOSs, and 0 indicators.
Presolve time = 0.00 sec. (0.48 ticks)
Represolve time = 0.03 sec. (3.04 ticks)
  98694     3    10511.0935    12    11857.3713    11245.0561   623448    5.16%
 103830  4249    11130.1056    12    11857.3713    11245.0561   651593    5.16%
*172271+66431                        11801.1857    11245.0561             4.71%
 218660 103435    11338.1487    12    11801.1857    11304.4574  1350391    4.21%
Elapsed time = 16.44 sec. (3126.41 ticks, tree = 23.20 MB, solutions = 29)
 351436 204756        cutoff          11801.1857    11406.6712  2129597    3.34%
 480312 290134    11615.1866    12    11801.1857    11468.1575  2867382    2.82%
 618029 369684    11637.2623    12    11801.1857    11518.2855  3644839    2.40%
 765517 439887    11591.1957    12    11801.1857    11560.7109  4492658    2.04%
 926740 498570    11617.0425     9    11801.1857    11599.1889  5399919    1.71%
 1096894 534914    11707.6789     8    11801.1857    11633.1449  6310030    1.42%
 1272141 544315        cutoff          11801.1857    11663.3445  7178610    1.17%

Clique cuts applied:  0
Flow path cuts applied:  0
Gomory fractional cuts applied:  0
Disjunctive cuts applied:  0
Cone linearizations applied:  0

Root node processing (before b&c):
  Real time             =    0.34 sec. (11.01 ticks)
Parallel b&c, 8 threads:
  Real time             =   66.26 sec. (9990.27 ticks)
  Sync time (average)   =   42.38 sec.
  Wait time (average)   =    1.00 sec.
                          ------------
Total (root+branch&cut) =   66.60 sec. (10001.27 ticks)
Gap: 1.11%
Upper bound: 11801.2
Lower bound: 11669.8
End of CPLEX run. Time: 66.6161 seconds
